1 51 2
-845 -670 -687 -363 -937 -533 -969 -348 -441 -394 -960 -869 -813 -938 -585 -287 -167 -666 -104 -867 -69 -21 -252 -548 -152 -128 -104 -549 -481 -751 -81 -1 -502 -150 -883 -855 -156 -706 -656 -567 -85 -964 -20 -739 -348 -831 -674 -964 -746 -566 0 
-93 -387 -269 -635 -58 -394 -37 -701 -589 -615 -7 -129 -217 -11 -475 -811 -862 -276 -894 -111 -859 -948 -687 -413 -815 -828 -913 -551 -456 -175 -965 -944 -452 -882 -138 -240 -919 -293 -320 -434 -836 -1 -984 -221 -557 -216 -247 -45 -273 -515 0 
963 925 771 1011 1028 818 1185 1092 843 1141 943 1038 1078 946 1136 1247 1130 1053 1025 1059 1119 777 858 974 1117 1086 1062 946 1046 739 1133 860 1154 1061 1205 996 1214 882 850 913 747 924 1040 903 780 1039 765 1080 1089 1017 1 
24904 
